Maximize
F - f1 - f2

Subject to
F - 10y87 - 40y25 - 20y41 - 30y175 - 10y79 - 40y154 - 30y106 - 10y162 - 30y176 - 40y38 - 10y31 - 40y134 - 40y23 - 20y171 - 40y107 - 10y127 - 10y76 - 10y19 - 40y52 - 20y112 - 20y92 - 20y34 - 30y53 - 20y5 - 40y72 - 20y165 - 30y16 - 30y68 - 30y140 - 40y135 - 20y22 - 40y155 - 30y49 - 40y142 - 10y100 - 10y170 - 40y163 - 40y84 - 40y108 = 0
f1 - 0.004367s87 - 0.004367s25 - 0.004367s41 - 0.004367s175 - 0.004367s79 - 0.004367s154 - 0.004367s106 - 0.004367s162 - 0.004367s176 - 0.004367s38 - 0.004367s31 - 0.004367s134 - 0.004367s23 - 0.004367s171 - 0.004367s107 - 0.004367s127 - 0.004367s76 - 0.004367s19 - 0.004367s52 - 0.004367s112 - 0.004367s92 - 0.004367s34 - 0.004367s53 - 0.004367s5 - 0.004367s72 - 0.004367s165 - 0.004367s16 - 0.004367s68 - 0.004367s140 - 0.004367s135 - 0.004367s22 - 0.004367s155 - 0.004367s49 - 0.004367s142 - 0.004367s100 - 0.004367s170 - 0.004367s163 - 0.004367s84 - 0.004367s108  = 0
f2 - 3.88y87 - 3.55y25 - 0.11y41 - 3.13y175 - 3.47y79 - 3.41y154 - 0.37y106 - 3.25y162 - 3.04y176 - 3.03y38 - 0.15y31 - 2.81y134 - 0.06y23 - 0.09y171 - 1.30y107 - 0.08y127 - 1.28y76 - 0.04y19 - 2.72y52 - 2.44y112 - 0.20y92 - 2.34y34 - 1.05y53 - 2.22y5 - 2.68y72 - 2.35y165 - 2.23y16 - 2.31y68 - 0.83y140 - 1.38y135 - 1.36y22 - 1.39y155 - 1.23y49 - 1.15y142 - 1.11y100 - 1.01y170 - 0.98y163 - 1.07y84 - 0.95y108 = 0

x44x87x1 + x44x25x1 + x44x175x1 + x44x106x1 + x44x38x1 + x44x171x1 + x44x107x1 + x44x127x1 + x44x19x1 + x44x52x1 + x44x92x1 + x44x34x1 + x44x53x1 + x44x72x1 + x44x16x1 + x44x68x1 + x44x135x1 + x44x22x1 + x44x49x1 + x44x170x1 + x44x163x1 
<= 2
x139x175x1 + x139x106x1 + x139x38x1 + x139x171x1 + x139x107x1 + x139x127x1 + x139x19x1 + x139x52x1 + x139x92x1 + x139x34x1 + x139x53x1 + x139x72x1 + x139x16x1 + x139x68x1 + x139x135x1 + x139x22x1 + x139x49x1 + x139x170x1 + x139x163x1 
<= 1
x131x106x1 + x131x171x1 + x131x127x1 + x131x19x1 + x131x92x1 
<= 1
x131x31x2 + x131x23x2 + x131x92x2 + x131x140x2 
<= 1
x139x41x3 + x139x175x3 + x139x154x3 + x139x162x3 + x139x176x3 + x139x23x3 + x139x127x3 + x139x5x3 + x139x16x3 + x139x140x3 + x139x135x3 + x139x22x3 + x139x155x3 + x139x142x3 + x139x163x3 + x139x84x3 
<= 1
x44x87x1 
- x87x0x1
- x87x175x1 - x87x106x1 - x87x38x1 - x87x171x1 - x87x127x1 - x87x19x1 - x87x52x1 - x87x92x1 - x87x34x1 - x87x72x1 - x87x16x1 - x87x68x1 - x87x135x1 - x87x22x1 - x87x49x1 - x87x170x1 - x87x163x1 
= 0

- x87x79x2 - x87x176x2 - x87x31x2 - x87x134x2 - x87x23x2 - x87x76x2 - x87x52x2 - x87x112x2 - x87x92x2 - x87x5x2 - x87x72x2 - x87x165x2 - x87x140x2 - x87x155x2 - x87x49x2 - x87x100x2 - x87x108x2 
= 0


x44x25x1 
- x25x0x1
- x25x175x1 - x25x106x1 - x25x38x1 - x25x171x1 - x25x107x1 - x25x127x1 - x25x19x1 - x25x52x1 - x25x92x1 - x25x34x1 - x25x72x1 - x25x16x1 - x25x68x1 - x25x135x1 - x25x22x1 - x25x49x1 - x25x170x1 - x25x163x1 
= 0

- x25x79x2 - x25x176x2 - x25x31x2 - x25x134x2 - x25x23x2 - x25x76x2 - x25x52x2 - x25x112x2 - x25x92x2 - x25x5x2 - x25x72x2 - x25x165x2 - x25x140x2 - x25x155x2 - x25x49x2 - x25x100x2 - x25x108x2 
= 0




x139x41x3 
- x41x0x3
- x41x23x3 - x41x127x3 - x41x5x3 - x41x16x3 - x41x140x3 - x41x135x3 - x41x22x3 - x41x155x3 - x41x142x3 - x41x163x3 - x41x84x3 
= 0

x44x175x1 + x139x175x1 + x87x175x1 + x25x175x1 
- x175x0x1
- x175x38x1 - x175x171x1 - x175x127x1 - x175x19x1 - x175x52x1 - x175x92x1 - x175x34x1 - x175x72x1 - x175x16x1 - x175x68x1 - x175x135x1 - x175x22x1 - x175x49x1 - x175x170x1 - x175x163x1 
= 0

x139x175x3 
- x175x0x3
- x175x154x3 - x175x162x3 - x175x176x3 - x175x23x3 - x175x127x3 - x175x5x3 - x175x16x3 - x175x140x3 - x175x135x3 - x175x22x3 - x175x155x3 - x175x142x3 - x175x163x3 - x175x84x3 
= 0


x87x79x2 + x25x79x2 
- x79x0x2
- x79x176x2 - x79x134x2 - x79x52x2 - x79x112x2 - x79x5x2 - x79x72x2 - x79x165x2 - x79x155x2 
= 0




x139x154x3 + x175x154x3 
- x154x0x3
- x154x162x3 - x154x176x3 - x154x5x3 - x154x16x3 - x154x135x3 
= 0

x44x106x1 + x139x106x1 + x131x106x1 + x87x106x1 + x25x106x1 
- x106x0x1
- x106x171x1 - x106x127x1 - x106x19x1 - x106x92x1 
= 0





x139x162x3 + x175x162x3 + x154x162x3 
- x162x0x3
- x162x5x3 - x162x16x3 
= 0


x87x176x2 + x25x176x2 + x79x176x2 
- x176x0x2
- x176x134x2 - x176x52x2 - x176x112x2 - x176x5x2 - x176x72x2 - x176x165x2 
= 0
x139x176x3 + x175x176x3 + x154x176x3 
- x176x0x3
- x176x5x3 - x176x16x3 
= 0

x44x38x1 + x139x38x1 + x87x38x1 + x25x38x1 + x175x38x1 
- x38x0x1
- x38x52x1 - x38x34x1 - x38x72x1 - x38x16x1 - x38x68x1 
= 0




x131x31x2 + x87x31x2 + x25x31x2 
- x31x0x2
- x31x23x2 - x31x92x2 
= 0



x87x134x2 + x25x134x2 + x79x134x2 + x176x134x2 
- x134x0x2

= 0



x131x23x2 + x87x23x2 + x25x23x2 + x31x23x2 
- x23x0x2

= 0
x139x23x3 + x41x23x3 + x175x23x3 
- x23x0x3

= 0

x44x171x1 + x139x171x1 + x131x171x1 + x87x171x1 + x25x171x1 + x175x171x1 + x106x171x1 
- x171x0x1

= 0



x44x107x1 + x139x107x1 + x25x107x1 
- x107x0x1

= 0



x44x127x1 + x139x127x1 + x131x127x1 + x87x127x1 + x25x127x1 + x175x127x1 + x106x127x1 
- x127x0x1

= 0

x139x127x3 + x41x127x3 + x175x127x3 
- x127x0x3

= 0


x87x76x2 + x25x76x2 
- x76x0x2

= 0


x44x19x1 + x139x19x1 + x131x19x1 + x87x19x1 + x25x19x1 + x175x19x1 + x106x19x1 
- x19x0x1

= 0



x44x52x1 + x139x52x1 + x87x52x1 + x25x52x1 + x175x52x1 + x38x52x1 
- x52x0x1

= 0
x87x52x2 + x25x52x2 + x79x52x2 + x176x52x2 
- x52x0x2

= 0



x87x112x2 + x25x112x2 + x79x112x2 + x176x112x2 
- x112x0x2

= 0


x44x92x1 + x139x92x1 + x131x92x1 + x87x92x1 + x25x92x1 + x175x92x1 + x106x92x1 
- x92x0x1

= 0
x131x92x2 + x87x92x2 + x25x92x2 + x31x92x2 
- x92x0x2

= 0


x44x34x1 + x139x34x1 + x87x34x1 + x25x34x1 + x175x34x1 + x38x34x1 
- x34x0x1

= 0



x44x53x1 + x139x53x1 
- x53x0x1

= 0




x87x5x2 + x25x5x2 + x79x5x2 + x176x5x2 
- x5x0x2

= 0
x139x5x3 + x41x5x3 + x175x5x3 + x154x5x3 + x162x5x3 + x176x5x3 
- x5x0x3

= 0

x44x72x1 + x139x72x1 + x87x72x1 + x25x72x1 + x175x72x1 + x38x72x1 
- x72x0x1

= 0
x87x72x2 + x25x72x2 + x79x72x2 + x176x72x2 
- x72x0x2

= 0



x87x165x2 + x25x165x2 + x79x165x2 + x176x165x2 
- x165x0x2

= 0


x44x16x1 + x139x16x1 + x87x16x1 + x25x16x1 + x175x16x1 + x38x16x1 
- x16x0x1

= 0

x139x16x3 + x41x16x3 + x175x16x3 + x154x16x3 + x162x16x3 + x176x16x3 
- x16x0x3

= 0

x44x68x1 + x139x68x1 + x87x68x1 + x25x68x1 + x175x68x1 + x38x68x1 
- x68x0x1

= 0




x131x140x2 + x87x140x2 + x25x140x2 
- x140x0x2

= 0
x139x140x3 + x41x140x3 + x175x140x3 
- x140x0x3

= 0

x44x135x1 + x139x135x1 + x87x135x1 + x25x135x1 + x175x135x1 
- x135x0x1

= 0

x139x135x3 + x41x135x3 + x175x135x3 + x154x135x3 
- x135x0x3

= 0

x44x22x1 + x139x22x1 + x87x22x1 + x25x22x1 + x175x22x1 
- x22x0x1

= 0

x139x22x3 + x41x22x3 + x175x22x3 
- x22x0x3

= 0


x87x155x2 + x25x155x2 + x79x155x2 
- x155x0x2

= 0
x139x155x3 + x41x155x3 + x175x155x3 
- x155x0x3

= 0

x44x49x1 + x139x49x1 + x87x49x1 + x25x49x1 + x175x49x1 
- x49x0x1

= 0
x87x49x2 + x25x49x2 
- x49x0x2

= 0




x139x142x3 + x41x142x3 + x175x142x3 
- x142x0x3

= 0


x87x100x2 + x25x100x2 
- x100x0x2

= 0


x44x170x1 + x139x170x1 + x87x170x1 + x25x170x1 + x175x170x1 
- x170x0x1

= 0



x44x163x1 + x139x163x1 + x87x163x1 + x25x163x1 + x175x163x1 
- x163x0x1

= 0

x139x163x3 + x41x163x3 + x175x163x3 
- x163x0x3

= 0



x139x84x3 + x41x84x3 + x175x84x3 
- x84x0x3

= 0


x87x108x2 + x25x108x2 
- x108x0x2

= 0


1y87 - x44x87x1 = 0
1y87 = 0
1y25 - x44x25x1 = 0
1y25 = 0
2y41 - x139x41x3 = 0
1y175 - x44x175x1 - x139x175x1 - x87x175x1 - x25x175x1 = 0
1y175 - x139x175x3 = 0
2y79 - x87x79x2 - x25x79x2 = 0
2y154 - x139x154x3 - x175x154x3 = 0
2y106 - x44x106x1 - x139x106x1 - x131x106x1 - x87x106x1 - x25x106x1 = 0
2y162 - x139x162x3 - x175x162x3 - x154x162x3 = 0
1y176 - x87x176x2 - x25x176x2 - x79x176x2 = 0
1y176 - x139x176x3 - x175x176x3 - x154x176x3 = 0
2y38 - x44x38x1 - x139x38x1 - x87x38x1 - x25x38x1 - x175x38x1 = 0
2y31 - x131x31x2 - x87x31x2 - x25x31x2 = 0
2y134 - x87x134x2 - x25x134x2 - x79x134x2 - x176x134x2 = 0
1y23 - x131x23x2 - x87x23x2 - x25x23x2 - x31x23x2 = 0
1y23 - x139x23x3 - x41x23x3 - x175x23x3 = 0
2y171 - x44x171x1 - x139x171x1 - x131x171x1 - x87x171x1 - x25x171x1 - x175x171x1 - x106x171x1 = 0
2y107 - x44x107x1 - x139x107x1 - x25x107x1 = 0
1y127 - x44x127x1 - x139x127x1 - x131x127x1 - x87x127x1 - x25x127x1 - x175x127x1 - x106x127x1 = 0
1y127 - x139x127x3 - x41x127x3 - x175x127x3 = 0
2y76 - x87x76x2 - x25x76x2 = 0
2y19 - x44x19x1 - x139x19x1 - x131x19x1 - x87x19x1 - x25x19x1 - x175x19x1 - x106x19x1 = 0
1y52 - x44x52x1 - x139x52x1 - x87x52x1 - x25x52x1 - x175x52x1 - x38x52x1 = 0
1y52 - x87x52x2 - x25x52x2 - x79x52x2 - x176x52x2 = 0
2y112 - x87x112x2 - x25x112x2 - x79x112x2 - x176x112x2 = 0
1y92 - x44x92x1 - x139x92x1 - x131x92x1 - x87x92x1 - x25x92x1 - x175x92x1 - x106x92x1 = 0
1y92 - x131x92x2 - x87x92x2 - x25x92x2 - x31x92x2 = 0
2y34 - x44x34x1 - x139x34x1 - x87x34x1 - x25x34x1 - x175x34x1 - x38x34x1 = 0
2y53 - x44x53x1 - x139x53x1 = 0
1y5 - x87x5x2 - x25x5x2 - x79x5x2 - x176x5x2 = 0
1y5 - x139x5x3 - x41x5x3 - x175x5x3 - x154x5x3 - x162x5x3 - x176x5x3 = 0
1y72 - x44x72x1 - x139x72x1 - x87x72x1 - x25x72x1 - x175x72x1 - x38x72x1 = 0
1y72 - x87x72x2 - x25x72x2 - x79x72x2 - x176x72x2 = 0
2y165 - x87x165x2 - x25x165x2 - x79x165x2 - x176x165x2 = 0
1y16 - x44x16x1 - x139x16x1 - x87x16x1 - x25x16x1 - x175x16x1 - x38x16x1 = 0
1y16 - x139x16x3 - x41x16x3 - x175x16x3 - x154x16x3 - x162x16x3 - x176x16x3 = 0
2y68 - x44x68x1 - x139x68x1 - x87x68x1 - x25x68x1 - x175x68x1 - x38x68x1 = 0
1y140 - x131x140x2 - x87x140x2 - x25x140x2 = 0
1y140 - x139x140x3 - x41x140x3 - x175x140x3 = 0
1y135 - x44x135x1 - x139x135x1 - x87x135x1 - x25x135x1 - x175x135x1 = 0
1y135 - x139x135x3 - x41x135x3 - x175x135x3 - x154x135x3 = 0
1y22 - x44x22x1 - x139x22x1 - x87x22x1 - x25x22x1 - x175x22x1 = 0
1y22 - x139x22x3 - x41x22x3 - x175x22x3 = 0
1y155 - x87x155x2 - x25x155x2 - x79x155x2 = 0
1y155 - x139x155x3 - x41x155x3 - x175x155x3 = 0
1y49 - x44x49x1 - x139x49x1 - x87x49x1 - x25x49x1 - x175x49x1 = 0
1y49 - x87x49x2 - x25x49x2 = 0
2y142 - x139x142x3 - x41x142x3 - x175x142x3 = 0
2y100 - x87x100x2 - x25x100x2 = 0
2y170 - x44x170x1 - x139x170x1 - x87x170x1 - x25x170x1 - x175x170x1 = 0
1y163 - x44x163x1 - x139x163x1 - x87x163x1 - x25x163x1 - x175x163x1 = 0
1y163 - x139x163x3 - x41x163x3 - x175x163x3 = 0
2y84 - x139x84x3 - x41x84x3 - x175x84x3 = 0
2y108 - x87x108x2 - x25x108x2 = 0

s44 - s87 + 5.286593z44z87z1 <= 3.90
s44 - s25 + 5.312281z44z25z1 <= 3.90
s44 - s175 + 5.356426z44z175z1 <= 3.90
s44 - s106 + 5.621556z44z106z1 <= 3.90
s44 - s38 + 5.402776z44z38z1 <= 3.90
s44 - s171 + 5.679498z44z171z1 <= 3.90
s44 - s107 + 5.545271z44z107z1 <= 3.90
s44 - s127 + 5.674605z44z127z1 <= 3.90
s44 - s19 + 5.640743z44z19z1 <= 3.90
s44 - s52 + 5.481886z44z52z1 <= 3.90
s44 - s92 + 5.681504z44z92z1 <= 3.90
s44 - s34 + 5.514257z44z34z1 <= 3.90
s44 - s53 + 5.567110z44z53z1 <= 3.90
s44 - s72 + 5.513527z44z72z1 <= 3.90
s44 - s16 + 5.535338z44z16z1 <= 3.90
s44 - s68 + 5.544021z44z68z1 <= 3.90
s44 - s135 + 5.649032z44z135z1 <= 3.90
s44 - s22 + 5.656993z44z22z1 <= 3.90
s44 - s49 + 5.684474z44z49z1 <= 3.90
s44 - s170 + 5.697423z44z170z1 <= 3.90
s44 - s163 + 5.712975z44z163z1 <= 3.90
s139 - s41 + 4.954633z139z41z3 <= 3.63
s139 - s175 + 5.414793z139z175z1 <= 3.63
s139 - s175 + 5.414793z139z175z3 <= 3.63
s139 - s154 + 5.477699z139z154z3 <= 3.63
s139 - s106 + 5.127053z139z106z1 <= 3.63
s139 - s162 + 5.497219z139z162z3 <= 3.63
s139 - s176 + 5.442377z139z176z3 <= 3.63
s139 - s38 + 5.454409z139z38z1 <= 3.63
s139 - s23 + 5.070017z139z23z3 <= 3.63
s139 - s171 + 5.115102z139z171z1 <= 3.63
s139 - s107 + 5.251508z139z107z1 <= 3.63
s139 - s127 + 5.106688z139z127z1 <= 3.63
s139 - s127 + 5.106688z139z127z3 <= 3.63
s139 - s19 + 5.055477z139z19z1 <= 3.63
s139 - s52 + 5.492799z139z52z1 <= 3.63
s139 - s92 + 5.081390z139z92z1 <= 3.63
s139 - s34 + 5.457128z139z34z1 <= 3.63
s139 - s53 + 5.219946z139z53z1 <= 3.63
s139 - s5 + 5.443580z139z5z3 <= 3.63
s139 - s72 + 5.524770z139z72z1 <= 3.63
s139 - s16 + 5.463552z139z16z1 <= 3.63
s139 - s16 + 5.463552z139z16z3 <= 3.63
s139 - s68 + 5.490219z139z68z1 <= 3.63
s139 - s140 + 5.132171z139z140z3 <= 3.63
s139 - s135 + 5.440185z139z135z1 <= 3.63
s139 - s135 + 5.440185z139z135z3 <= 3.63
s139 - s22 + 5.447831z139z22z1 <= 3.63
s139 - s22 + 5.447831z139z22z3 <= 3.63
s139 - s155 + 5.468657z139z155z3 <= 3.63
s139 - s49 + 5.459141z139z49z1 <= 3.63
s139 - s142 + 5.447396z139z142z3 <= 3.63
s139 - s170 + 5.430719z139z170z1 <= 3.63
s139 - s163 + 5.446770z139z163z1 <= 3.63
s139 - s163 + 5.446770z139z163z3 <= 3.63
s139 - s84 + 5.487216z139z84z3 <= 3.63
s131 - s106 + 5.722828z131z106z1 <= 4.21
s131 - s31 + 5.684530z131z31z2 <= 4.21
s131 - s23 + 5.664881z131z23z2 <= 4.21
s131 - s171 + 5.708058z131z171z1 <= 4.21
s131 - s127 + 5.699873z131z127z1 <= 4.21
s131 - s19 + 5.650540z131z19z1 <= 4.21
s131 - s92 + 5.674164z131z92z1 <= 4.21
s131 - s92 + 5.674164z131z92z2 <= 4.21
s131 - s140 + 5.719743z131z140z2 <= 4.21
s87 - s175 + 6.394350z87z175z1 <= 5.29
s87 - s79 + 6.359602z87z79z2 <= 5.29
s87 - s106 + 6.776118z87z106z1 <= 5.29
s87 - s176 + 6.410738z87z176z2 <= 5.29
s87 - s38 + 6.416667z87z38z1 <= 5.29
s87 - s31 + 6.808545z87z31z2 <= 5.29
s87 - s134 + 6.466509z87z134z2 <= 5.29
s87 - s23 + 6.822875z87z23z2 <= 5.29
s87 - s171 + 6.833773z87z171z1 <= 5.29
s87 - s127 + 6.833118z87z127z1 <= 5.29
s87 - s76 + 6.649011z87z76z2 <= 5.29
s87 - s19 + 6.828145z87z19z1 <= 5.29
s87 - s52 + 6.488886z87z52z1 <= 5.29
s87 - s52 + 6.488886z87z52z2 <= 5.29
s87 - s112 + 6.510101z87z112z2 <= 5.29
s87 - s92 + 6.851150z87z92z1 <= 5.29
s87 - s92 + 6.851150z87z92z2 <= 5.29
s87 - s34 + 6.530370z87z34z1 <= 5.29
s87 - s5 + 6.543333z87z5z2 <= 5.29
s87 - s72 + 6.517840z87z72z1 <= 5.29
s87 - s72 + 6.517840z87z72z2 <= 5.29
s87 - s165 + 6.538909z87z165z2 <= 5.29
s87 - s16 + 6.550768z87z16z1 <= 5.29
s87 - s68 + 6.554155z87z68z1 <= 5.29
s87 - s140 + 6.928679z87z140z2 <= 5.29
s87 - s135 + 6.676897z87z135z1 <= 5.29
s87 - s22 + 6.683390z87z22z1 <= 5.29
s87 - s155 + 6.690222z87z155z2 <= 5.29
s87 - s49 + 6.710000z87z49z1 <= 5.29
s87 - s49 + 6.710000z87z49z2 <= 5.29
s87 - s100 + 6.717499z87z100z2 <= 5.29
s87 - s170 + 6.731261z87z170z1 <= 5.29
s87 - s163 + 6.743774z87z163z1 <= 5.29
s87 - s108 + 6.756714z87z108z2 <= 5.29
s25 - s175 + 6.386960z25z175z1 <= 5.33
s25 - s79 + 6.383748z25z79z2 <= 5.33
s25 - s106 + 6.768634z25z106z1 <= 5.33
s25 - s176 + 6.411103z25z176z2 <= 5.33
s25 - s38 + 6.420676z25z38z1 <= 5.33
s25 - s31 + 6.801498z25z31z2 <= 5.33
s25 - s134 + 6.476212z25z134z2 <= 5.33
s25 - s23 + 6.816118z25z23z2 <= 5.33
s25 - s171 + 6.826074z25z171z1 <= 5.33
s25 - s107 + 6.638833z25z107z1 <= 5.33
s25 - s127 + 6.825536z25z127z1 <= 5.33
s25 - s76 + 6.640984z25z76z2 <= 5.33
s25 - s19 + 6.821709z25z19z1 <= 5.33
s25 - s52 + 6.499967z25z52z1 <= 5.33
s25 - s52 + 6.499967z25z52z2 <= 5.33
s25 - s112 + 6.513061z25z112z2 <= 5.33
s25 - s92 + 6.843853z25z92z1 <= 5.33
s25 - s92 + 6.843853z25z92z2 <= 5.33
s25 - s34 + 6.533961z25z34z1 <= 5.33
s25 - s5 + 6.544993z25z5z2 <= 5.33
s25 - s72 + 6.533525z25z72z1 <= 5.33
s25 - s72 + 6.533525z25z72z2 <= 5.33
s25 - s165 + 6.545200z25z165z2 <= 5.33
s25 - s16 + 6.554895z25z16z1 <= 5.33
s25 - s68 + 6.561900z25z68z1 <= 5.33
s25 - s140 + 6.920668z25z140z2 <= 5.33
s25 - s135 + 6.676923z25z135z1 <= 5.33
s25 - s22 + 6.683899z25z22z1 <= 5.33
s25 - s155 + 6.692215z25z155z2 <= 5.33
s25 - s49 + 6.710935z25z49z1 <= 5.33
s25 - s49 + 6.710935z25z49z2 <= 5.33
s25 - s100 + 6.716667z25z100z2 <= 5.33
s25 - s170 + 6.730055z25z170z1 <= 5.33
s25 - s163 + 6.743387z25z163z1 <= 5.33
s25 - s108 + 6.757135z25z108z2 <= 5.33
s41 - s23 + 6.509257z41z23z3 <= 5.39
s41 - s127 + 6.552754z41z127z3 <= 5.39
s41 - s5 + 6.886969z41z5z3 <= 5.39
s41 - s16 + 6.906096z41z16z3 <= 5.39
s41 - s140 + 6.619879z41z140z3 <= 5.39
s41 - s135 + 6.875569z41z135z3 <= 5.39
s41 - s22 + 6.883198z41z22z3 <= 5.39
s41 - s155 + 6.904025z41z155z3 <= 5.39
s41 - s142 + 6.883198z41z142z3 <= 5.39
s41 - s163 + 6.883603z41z163z3 <= 5.39
s41 - s84 + 6.923875z41z84z3 <= 5.39
s175 - s154 + 6.523246z175z154z3 <= 5.46
s175 - s162 + 6.547687z175z162z3 <= 5.46
s175 - s176 + 6.502687z175z176z3 <= 5.46
s175 - s38 + 6.517349z175z38z1 <= 5.46
s175 - s23 + 6.896247z175z23z3 <= 5.46
s175 - s171 + 6.903221z175z171z1 <= 5.46
s175 - s127 + 6.903120z175z127z1 <= 5.46
s175 - s127 + 6.903120z175z127z3 <= 5.46
s175 - s19 + 6.902669z175z19z1 <= 5.46
s175 - s52 + 6.596788z175z52z1 <= 5.46
s175 - s92 + 6.922361z175z92z1 <= 5.46
s175 - s34 + 6.618465z175z34z1 <= 5.46
s175 - s5 + 6.626667z175z5z3 <= 5.46
s175 - s72 + 6.634483z175z72z1 <= 5.46
s175 - s16 + 6.639505z175z16z1 <= 5.46
s175 - s16 + 6.639505z175z16z3 <= 5.46
s175 - s68 + 6.651021z175z68z1 <= 5.46
s175 - s140 + 6.996201z175z140z3 <= 5.46
s175 - s135 + 6.755221z175z135z1 <= 5.46
s175 - s135 + 6.755221z175z135z3 <= 5.46
s175 - s22 + 6.762655z175z22z1 <= 5.46
s175 - s22 + 6.762655z175z22z3 <= 5.46
s175 - s155 + 6.772481z175z155z3 <= 5.46
s175 - s49 + 6.789983z175z49z1 <= 5.46
s175 - s142 + 6.794996z175z142z3 <= 5.46
s175 - s170 + 6.806923z175z170z1 <= 5.46
s175 - s163 + 6.820986z175z163z1 <= 5.46
s175 - s163 + 6.820986z175z163z3 <= 5.46
s175 - s84 + 6.832678z175z84z3 <= 5.46
s79 - s176 + 6.722893z79z176z2 <= 5.66
s79 - s134 + 6.767497z79z134z2 <= 5.66
s79 - s52 + 6.789443z79z52z2 <= 5.66
s79 - s112 + 6.813912z79z112z2 <= 5.66
s79 - s5 + 6.847735z79z5z2 <= 5.66
s79 - s72 + 6.818465z79z72z2 <= 5.66
s79 - s165 + 6.840493z79z165z2 <= 5.66
s79 - s155 + 6.993400z79z155z2 <= 5.66
s154 - s162 + 6.722687z154z162z3 <= 5.68
s154 - s176 + 6.733748z154z176z3 <= 5.68
s154 - s5 + 6.860493z154z5z3 <= 5.68
s154 - s16 + 6.866786z154z16z3 <= 5.68
s154 - s135 + 6.994466z154z135z3 <= 5.68
s106 - s171 + 6.849628z106z171z1 <= 5.79
s106 - s127 + 6.847349z106z127z1 <= 5.79
s106 - s19 + 6.863333z106z19z1 <= 5.79
s106 - s92 + 6.866012z106z92z1 <= 5.79
s162 - s5 + 6.972023z162z5z3 <= 5.82
s162 - s16 + 6.974632z162z16z3 <= 5.82
s176 - s134 + 6.900867z176z134z2 <= 5.83
s176 - s52 + 6.924751z176z52z2 <= 5.83
s176 - s112 + 6.931980z176z112z2 <= 5.83
s176 - s5 + 6.963998z176z5z2 <= 5.83
s176 - s5 + 6.963998z176z5z3 <= 5.83
s176 - s72 + 6.961993z176z72z2 <= 5.83
s176 - s165 + 6.964990z176z165z2 <= 5.83
s176 - s16 + 6.973913z176z16z3 <= 5.83
s38 - s52 + 6.931377z38z52z1 <= 5.85
s38 - s34 + 6.964115z38z34z1 <= 5.85
s38 - s72 + 6.967945z38z72z1 <= 5.85
s38 - s16 + 6.984825z38z16z1 <= 5.85
s38 - s68 + 6.991264z38z68z1 <= 5.85
s31 - s23 + 6.960000z31z23z2 <= 5.94
s31 - s92 + 6.984721z31z92z2 <= 5.94

x44x87x1 - 1z44z87z1 <= 0
x44x25x1 - 1z44z25z1 <= 0
x44x175x1 - 1z44z175z1 <= 0
x44x106x1 - 2z44z106z1 <= 0
x44x38x1 - 2z44z38z1 <= 0
x44x171x1 - 2z44z171z1 <= 0
x44x107x1 - 2z44z107z1 <= 0
x44x127x1 - 1z44z127z1 <= 0
x44x19x1 - 2z44z19z1 <= 0
x44x52x1 - 1z44z52z1 <= 0
x44x92x1 - 1z44z92z1 <= 0
x44x34x1 - 2z44z34z1 <= 0
x44x53x1 - 2z44z53z1 <= 0
x44x72x1 - 1z44z72z1 <= 0
x44x16x1 - 1z44z16z1 <= 0
x44x68x1 - 2z44z68z1 <= 0
x44x135x1 - 1z44z135z1 <= 0
x44x22x1 - 1z44z22z1 <= 0
x44x49x1 - 1z44z49z1 <= 0
x44x170x1 - 2z44z170z1 <= 0
x44x163x1 - 1z44z163z1 <= 0
x139x41x3 - 2z139z41z3 <= 0
x139x175x1 - 1z139z175z1 <= 0
x139x175x3 - 1z139z175z3 <= 0
x139x154x3 - 2z139z154z3 <= 0
x139x106x1 - 2z139z106z1 <= 0
x139x162x3 - 2z139z162z3 <= 0
x139x176x3 - 1z139z176z3 <= 0
x139x38x1 - 2z139z38z1 <= 0
x139x23x3 - 1z139z23z3 <= 0
x139x171x1 - 2z139z171z1 <= 0
x139x107x1 - 2z139z107z1 <= 0
x139x127x1 - 1z139z127z1 <= 0
x139x127x3 - 1z139z127z3 <= 0
x139x19x1 - 2z139z19z1 <= 0
x139x52x1 - 1z139z52z1 <= 0
x139x92x1 - 1z139z92z1 <= 0
x139x34x1 - 2z139z34z1 <= 0
x139x53x1 - 2z139z53z1 <= 0
x139x5x3 - 1z139z5z3 <= 0
x139x72x1 - 1z139z72z1 <= 0
x139x16x1 - 1z139z16z1 <= 0
x139x16x3 - 1z139z16z3 <= 0
x139x68x1 - 2z139z68z1 <= 0
x139x140x3 - 1z139z140z3 <= 0
x139x135x1 - 1z139z135z1 <= 0
x139x135x3 - 1z139z135z3 <= 0
x139x22x1 - 1z139z22z1 <= 0
x139x22x3 - 1z139z22z3 <= 0
x139x155x3 - 1z139z155z3 <= 0
x139x49x1 - 1z139z49z1 <= 0
x139x142x3 - 2z139z142z3 <= 0
x139x170x1 - 2z139z170z1 <= 0
x139x163x1 - 1z139z163z1 <= 0
x139x163x3 - 1z139z163z3 <= 0
x139x84x3 - 2z139z84z3 <= 0
x131x106x1 - 2z131z106z1 <= 0
x131x31x2 - 2z131z31z2 <= 0
x131x23x2 - 1z131z23z2 <= 0
x131x171x1 - 2z131z171z1 <= 0
x131x127x1 - 1z131z127z1 <= 0
x131x19x1 - 2z131z19z1 <= 0
x131x92x1 - 1z131z92z1 <= 0
x131x92x2 - 1z131z92z2 <= 0
x131x140x2 - 1z131z140z2 <= 0
x87x175x1 - 1z87z175z1 <= 0
x87x79x2 - 2z87z79z2 <= 0
x87x106x1 - 2z87z106z1 <= 0
x87x176x2 - 1z87z176z2 <= 0
x87x38x1 - 2z87z38z1 <= 0
x87x31x2 - 2z87z31z2 <= 0
x87x134x2 - 2z87z134z2 <= 0
x87x23x2 - 1z87z23z2 <= 0
x87x171x1 - 2z87z171z1 <= 0
x87x127x1 - 1z87z127z1 <= 0
x87x76x2 - 2z87z76z2 <= 0
x87x19x1 - 2z87z19z1 <= 0
x87x52x1 - 1z87z52z1 <= 0
x87x52x2 - 1z87z52z2 <= 0
x87x112x2 - 2z87z112z2 <= 0
x87x92x1 - 1z87z92z1 <= 0
x87x92x2 - 1z87z92z2 <= 0
x87x34x1 - 2z87z34z1 <= 0
x87x5x2 - 1z87z5z2 <= 0
x87x72x1 - 1z87z72z1 <= 0
x87x72x2 - 1z87z72z2 <= 0
x87x165x2 - 2z87z165z2 <= 0
x87x16x1 - 1z87z16z1 <= 0
x87x68x1 - 2z87z68z1 <= 0
x87x140x2 - 1z87z140z2 <= 0
x87x135x1 - 1z87z135z1 <= 0
x87x22x1 - 1z87z22z1 <= 0
x87x155x2 - 1z87z155z2 <= 0
x87x49x1 - 1z87z49z1 <= 0
x87x49x2 - 1z87z49z2 <= 0
x87x100x2 - 2z87z100z2 <= 0
x87x170x1 - 2z87z170z1 <= 0
x87x163x1 - 1z87z163z1 <= 0
x87x108x2 - 2z87z108z2 <= 0
x87x0x1 <= 1
x87x0x2 <= 1
x25x175x1 - 1z25z175z1 <= 0
x25x79x2 - 2z25z79z2 <= 0
x25x106x1 - 2z25z106z1 <= 0
x25x176x2 - 1z25z176z2 <= 0
x25x38x1 - 2z25z38z1 <= 0
x25x31x2 - 2z25z31z2 <= 0
x25x134x2 - 2z25z134z2 <= 0
x25x23x2 - 1z25z23z2 <= 0
x25x171x1 - 2z25z171z1 <= 0
x25x107x1 - 2z25z107z1 <= 0
x25x127x1 - 1z25z127z1 <= 0
x25x76x2 - 2z25z76z2 <= 0
x25x19x1 - 2z25z19z1 <= 0
x25x52x1 - 1z25z52z1 <= 0
x25x52x2 - 1z25z52z2 <= 0
x25x112x2 - 2z25z112z2 <= 0
x25x92x1 - 1z25z92z1 <= 0
x25x92x2 - 1z25z92z2 <= 0
x25x34x1 - 2z25z34z1 <= 0
x25x5x2 - 1z25z5z2 <= 0
x25x72x1 - 1z25z72z1 <= 0
x25x72x2 - 1z25z72z2 <= 0
x25x165x2 - 2z25z165z2 <= 0
x25x16x1 - 1z25z16z1 <= 0
x25x68x1 - 2z25z68z1 <= 0
x25x140x2 - 1z25z140z2 <= 0
x25x135x1 - 1z25z135z1 <= 0
x25x22x1 - 1z25z22z1 <= 0
x25x155x2 - 1z25z155z2 <= 0
x25x49x1 - 1z25z49z1 <= 0
x25x49x2 - 1z25z49z2 <= 0
x25x100x2 - 2z25z100z2 <= 0
x25x170x1 - 2z25z170z1 <= 0
x25x163x1 - 1z25z163z1 <= 0
x25x108x2 - 2z25z108z2 <= 0
x25x0x1 <= 1
x25x0x2 <= 1
x41x23x3 - 1z41z23z3 <= 0
x41x127x3 - 1z41z127z3 <= 0
x41x5x3 - 1z41z5z3 <= 0
x41x16x3 - 1z41z16z3 <= 0
x41x140x3 - 1z41z140z3 <= 0
x41x135x3 - 1z41z135z3 <= 0
x41x22x3 - 1z41z22z3 <= 0
x41x155x3 - 1z41z155z3 <= 0
x41x142x3 - 2z41z142z3 <= 0
x41x163x3 - 1z41z163z3 <= 0
x41x84x3 - 2z41z84z3 <= 0
x41x0x3 <= 2
x175x154x3 - 2z175z154z3 <= 0
x175x162x3 - 2z175z162z3 <= 0
x175x176x3 - 1z175z176z3 <= 0
x175x38x1 - 2z175z38z1 <= 0
x175x23x3 - 1z175z23z3 <= 0
x175x171x1 - 2z175z171z1 <= 0
x175x127x1 - 1z175z127z1 <= 0
x175x127x3 - 1z175z127z3 <= 0
x175x19x1 - 2z175z19z1 <= 0
x175x52x1 - 1z175z52z1 <= 0
x175x92x1 - 1z175z92z1 <= 0
x175x34x1 - 2z175z34z1 <= 0
x175x5x3 - 1z175z5z3 <= 0
x175x72x1 - 1z175z72z1 <= 0
x175x16x1 - 1z175z16z1 <= 0
x175x16x3 - 1z175z16z3 <= 0
x175x68x1 - 2z175z68z1 <= 0
x175x140x3 - 1z175z140z3 <= 0
x175x135x1 - 1z175z135z1 <= 0
x175x135x3 - 1z175z135z3 <= 0
x175x22x1 - 1z175z22z1 <= 0
x175x22x3 - 1z175z22z3 <= 0
x175x155x3 - 1z175z155z3 <= 0
x175x49x1 - 1z175z49z1 <= 0
x175x142x3 - 2z175z142z3 <= 0
x175x170x1 - 2z175z170z1 <= 0
x175x163x1 - 1z175z163z1 <= 0
x175x163x3 - 1z175z163z3 <= 0
x175x84x3 - 2z175z84z3 <= 0
x175x0x1 <= 1
x175x0x3 <= 1
x79x176x2 - 1z79z176z2 <= 0
x79x134x2 - 2z79z134z2 <= 0
x79x52x2 - 1z79z52z2 <= 0
x79x112x2 - 2z79z112z2 <= 0
x79x5x2 - 1z79z5z2 <= 0
x79x72x2 - 1z79z72z2 <= 0
x79x165x2 - 2z79z165z2 <= 0
x79x155x2 - 1z79z155z2 <= 0
x79x0x2 <= 2
x154x162x3 - 2z154z162z3 <= 0
x154x176x3 - 1z154z176z3 <= 0
x154x5x3 - 1z154z5z3 <= 0
x154x16x3 - 1z154z16z3 <= 0
x154x135x3 - 1z154z135z3 <= 0
x154x0x3 <= 2
x106x171x1 - 2z106z171z1 <= 0
x106x127x1 - 1z106z127z1 <= 0
x106x19x1 - 2z106z19z1 <= 0
x106x92x1 - 1z106z92z1 <= 0
x106x0x1 <= 2
x162x5x3 - 1z162z5z3 <= 0
x162x16x3 - 1z162z16z3 <= 0
x162x0x3 <= 2
x176x134x2 - 2z176z134z2 <= 0
x176x52x2 - 1z176z52z2 <= 0
x176x112x2 - 2z176z112z2 <= 0
x176x5x2 - 1z176z5z2 <= 0
x176x5x3 - 1z176z5z3 <= 0
x176x72x2 - 1z176z72z2 <= 0
x176x165x2 - 2z176z165z2 <= 0
x176x16x3 - 1z176z16z3 <= 0
x176x0x2 <= 1
x176x0x3 <= 1
x38x52x1 - 1z38z52z1 <= 0
x38x34x1 - 2z38z34z1 <= 0
x38x72x1 - 1z38z72z1 <= 0
x38x16x1 - 1z38z16z1 <= 0
x38x68x1 - 2z38z68z1 <= 0
x38x0x1 <= 2
x31x23x2 - 1z31z23z2 <= 0
x31x92x2 - 1z31z92z2 <= 0
x31x0x2 <= 2
x134x0x2 <= 2
x23x0x2 <= 1
x23x0x3 <= 1
x171x0x1 <= 2
x107x0x1 <= 2
x127x0x1 <= 1
x127x0x3 <= 1
x76x0x2 <= 2
x19x0x1 <= 2
x52x0x1 <= 1
x52x0x2 <= 1
x112x0x2 <= 2
x92x0x1 <= 1
x92x0x2 <= 1
x34x0x1 <= 2
x53x0x1 <= 2
x5x0x2 <= 1
x5x0x3 <= 1
x72x0x1 <= 1
x72x0x2 <= 1
x165x0x2 <= 2
x16x0x1 <= 1
x16x0x3 <= 1
x68x0x1 <= 2
x140x0x2 <= 1
x140x0x3 <= 1
x135x0x1 <= 1
x135x0x3 <= 1
x22x0x1 <= 1
x22x0x3 <= 1
x155x0x2 <= 1
x155x0x3 <= 1
x49x0x1 <= 1
x49x0x2 <= 1
x142x0x3 <= 2
x100x0x2 <= 2
x170x0x1 <= 2
x163x0x1 <= 1
x163x0x3 <= 1
x84x0x3 <= 2
x108x0x2 <= 2

s87 + 5.29z44z87z1 <= 11.29
s25 + 5.33z44z25z1 <= 11.33
s41 + 5.39z139z41z3 <= 11.39
s175 + 5.46z44z175z1 <= 11.46
s175 + 5.46z139z175z1 <= 11.46
s175 + 5.46z139z175z3 <= 11.46
s175 + 5.46z87z175z1 <= 11.46
s175 + 5.46z25z175z1 <= 11.46
s79 + 5.66z87z79z2 <= 11.66
s79 + 5.66z25z79z2 <= 11.66
s154 + 5.68z139z154z3 <= 11.68
s154 + 5.68z175z154z3 <= 11.68
s106 + 5.79z44z106z1 <= 11.79
s106 + 5.79z139z106z1 <= 11.79
s106 + 5.79z131z106z1 <= 11.79
s106 + 5.79z87z106z1 <= 11.79
s106 + 5.79z25z106z1 <= 11.79
s162 + 5.82z139z162z3 <= 11.82
s162 + 5.82z175z162z3 <= 11.82
s162 + 5.82z154z162z3 <= 11.82
s176 + 5.83z139z176z3 <= 11.83
s176 + 5.83z87z176z2 <= 11.83
s176 + 5.83z25z176z2 <= 11.83
s176 + 5.83z175z176z3 <= 11.83
s176 + 5.83z79z176z2 <= 11.83
s176 + 5.83z154z176z3 <= 11.83
s38 + 5.85z44z38z1 <= 11.85
s38 + 5.85z139z38z1 <= 11.85
s38 + 5.85z87z38z1 <= 11.85
s38 + 5.85z25z38z1 <= 11.85
s38 + 5.85z175z38z1 <= 11.85
s31 + 5.94z131z31z2 <= 11.94
s31 + 5.94z87z31z2 <= 11.94
s31 + 5.94z25z31z2 <= 11.94
s134 + 6.00z87z134z2 <= 12.00
s134 + 6.00z25z134z2 <= 12.00
s134 + 6.00z79z134z2 <= 12.00
s134 + 6.00z176z134z2 <= 12.00
s23 + 6.00z139z23z3 <= 12.00
s23 + 6.00z131z23z2 <= 12.00
s23 + 6.00z87z23z2 <= 12.00
s23 + 6.00z25z23z2 <= 12.00
s23 + 6.00z41z23z3 <= 12.00
s23 + 6.00z175z23z3 <= 12.00
s23 + 6.00z31z23z2 <= 12.00
s171 + 6.00z44z171z1 <= 12.00
s171 + 6.00z139z171z1 <= 12.00
s171 + 6.00z131z171z1 <= 12.00
s171 + 6.00z87z171z1 <= 12.00
s171 + 6.00z25z171z1 <= 12.00
s171 + 6.00z175z171z1 <= 12.00
s171 + 6.00z106z171z1 <= 12.00
s107 + 5.64z44z107z1 <= 11.64
s107 + 5.64z139z107z1 <= 11.64
s107 + 5.64z25z107z1 <= 11.64
s127 + 6.00z44z127z1 <= 12.00
s127 + 6.00z139z127z1 <= 12.00
s127 + 6.00z139z127z3 <= 12.00
s127 + 6.00z131z127z1 <= 12.00
s127 + 6.00z87z127z1 <= 12.00
s127 + 6.00z25z127z1 <= 12.00
s127 + 6.00z41z127z3 <= 12.00
s127 + 6.00z175z127z1 <= 12.00
s127 + 6.00z175z127z3 <= 12.00
s127 + 6.00z106z127z1 <= 12.00
s76 + 5.68z87z76z2 <= 11.68
s76 + 5.68z25z76z2 <= 11.68
s19 + 6.00z44z19z1 <= 12.00
s19 + 6.00z139z19z1 <= 12.00
s19 + 6.00z131z19z1 <= 12.00
s19 + 6.00z87z19z1 <= 12.00
s19 + 6.00z25z19z1 <= 12.00
s19 + 6.00z175z19z1 <= 12.00
s19 + 6.00z106z19z1 <= 12.00
s52 + 6.00z44z52z1 <= 12.00
s52 + 6.00z139z52z1 <= 12.00
s52 + 6.00z87z52z1 <= 12.00
s52 + 6.00z87z52z2 <= 12.00
s52 + 6.00z25z52z1 <= 12.00
s52 + 6.00z25z52z2 <= 12.00
s52 + 6.00z175z52z1 <= 12.00
s52 + 6.00z79z52z2 <= 12.00
s52 + 6.00z176z52z2 <= 12.00
s52 + 6.00z38z52z1 <= 12.00
s112 + 6.00z87z112z2 <= 12.00
s112 + 6.00z25z112z2 <= 12.00
s112 + 6.00z79z112z2 <= 12.00
s112 + 6.00z176z112z2 <= 12.00
s92 + 6.00z44z92z1 <= 12.00
s92 + 6.00z139z92z1 <= 12.00
s92 + 6.00z131z92z1 <= 12.00
s92 + 6.00z131z92z2 <= 12.00
s92 + 6.00z87z92z1 <= 12.00
s92 + 6.00z87z92z2 <= 12.00
s92 + 6.00z25z92z1 <= 12.00
s92 + 6.00z25z92z2 <= 12.00
s92 + 6.00z175z92z1 <= 12.00
s92 + 6.00z106z92z1 <= 12.00
s92 + 6.00z31z92z2 <= 12.00
s34 + 6.00z44z34z1 <= 12.00
s34 + 6.00z139z34z1 <= 12.00
s34 + 6.00z87z34z1 <= 12.00
s34 + 6.00z25z34z1 <= 12.00
s34 + 6.00z175z34z1 <= 12.00
s34 + 6.00z38z34z1 <= 12.00
s53 + 5.62z44z53z1 <= 11.62
s53 + 5.62z139z53z1 <= 11.62
s5 + 6.00z139z5z3 <= 12.00
s5 + 6.00z87z5z2 <= 12.00
s5 + 6.00z25z5z2 <= 12.00
s5 + 6.00z41z5z3 <= 12.00
s5 + 6.00z175z5z3 <= 12.00
s5 + 6.00z79z5z2 <= 12.00
s5 + 6.00z154z5z3 <= 12.00
s5 + 6.00z162z5z3 <= 12.00
s5 + 6.00z176z5z2 <= 12.00
s5 + 6.00z176z5z3 <= 12.00
s72 + 6.00z44z72z1 <= 12.00
s72 + 6.00z139z72z1 <= 12.00
s72 + 6.00z87z72z1 <= 12.00
s72 + 6.00z87z72z2 <= 12.00
s72 + 6.00z25z72z1 <= 12.00
s72 + 6.00z25z72z2 <= 12.00
s72 + 6.00z175z72z1 <= 12.00
s72 + 6.00z79z72z2 <= 12.00
s72 + 6.00z176z72z2 <= 12.00
s72 + 6.00z38z72z1 <= 12.00
s165 + 6.00z87z165z2 <= 12.00
s165 + 6.00z25z165z2 <= 12.00
s165 + 6.00z79z165z2 <= 12.00
s165 + 6.00z176z165z2 <= 12.00
s16 + 6.00z44z16z1 <= 12.00
s16 + 6.00z139z16z1 <= 12.00
s16 + 6.00z139z16z3 <= 12.00
s16 + 6.00z87z16z1 <= 12.00
s16 + 6.00z25z16z1 <= 12.00
s16 + 6.00z41z16z3 <= 12.00
s16 + 6.00z175z16z1 <= 12.00
s16 + 6.00z175z16z3 <= 12.00
s16 + 6.00z154z16z3 <= 12.00
s16 + 6.00z162z16z3 <= 12.00
s16 + 6.00z176z16z3 <= 12.00
s16 + 6.00z38z16z1 <= 12.00
s68 + 6.00z44z68z1 <= 12.00
s68 + 6.00z139z68z1 <= 12.00
s68 + 6.00z87z68z1 <= 12.00
s68 + 6.00z25z68z1 <= 12.00
s68 + 6.00z175z68z1 <= 12.00
s68 + 6.00z38z68z1 <= 12.00
s140 + 6.00z139z140z3 <= 12.00
s140 + 6.00z131z140z2 <= 12.00
s140 + 6.00z87z140z2 <= 12.00
s140 + 6.00z25z140z2 <= 12.00
s140 + 6.00z41z140z3 <= 12.00
s140 + 6.00z175z140z3 <= 12.00
s135 + 6.00z44z135z1 <= 12.00
s135 + 6.00z139z135z1 <= 12.00
s135 + 6.00z139z135z3 <= 12.00
s135 + 6.00z87z135z1 <= 12.00
s135 + 6.00z25z135z1 <= 12.00
s135 + 6.00z41z135z3 <= 12.00
s135 + 6.00z175z135z1 <= 12.00
s135 + 6.00z175z135z3 <= 12.00
s135 + 6.00z154z135z3 <= 12.00
s22 + 6.00z44z22z1 <= 12.00
s22 + 6.00z139z22z1 <= 12.00
s22 + 6.00z139z22z3 <= 12.00
s22 + 6.00z87z22z1 <= 12.00
s22 + 6.00z25z22z1 <= 12.00
s22 + 6.00z41z22z3 <= 12.00
s22 + 6.00z175z22z1 <= 12.00
s22 + 6.00z175z22z3 <= 12.00
s155 + 6.00z139z155z3 <= 12.00
s155 + 6.00z87z155z2 <= 12.00
s155 + 6.00z25z155z2 <= 12.00
s155 + 6.00z41z155z3 <= 12.00
s155 + 6.00z175z155z3 <= 12.00
s155 + 6.00z79z155z2 <= 12.00
s49 + 6.00z44z49z1 <= 12.00
s49 + 6.00z139z49z1 <= 12.00
s49 + 6.00z87z49z1 <= 12.00
s49 + 6.00z87z49z2 <= 12.00
s49 + 6.00z25z49z1 <= 12.00
s49 + 6.00z25z49z2 <= 12.00
s49 + 6.00z175z49z1 <= 12.00
s142 + 6.00z139z142z3 <= 12.00
s142 + 6.00z41z142z3 <= 12.00
s142 + 6.00z175z142z3 <= 12.00
s100 + 6.00z87z100z2 <= 12.00
s100 + 6.00z25z100z2 <= 12.00
s170 + 6.00z44z170z1 <= 12.00
s170 + 6.00z139z170z1 <= 12.00
s170 + 6.00z87z170z1 <= 12.00
s170 + 6.00z25z170z1 <= 12.00
s170 + 6.00z175z170z1 <= 12.00
s163 + 6.00z44z163z1 <= 12.00
s163 + 6.00z139z163z1 <= 12.00
s163 + 6.00z139z163z3 <= 12.00
s163 + 6.00z87z163z1 <= 12.00
s163 + 6.00z25z163z1 <= 12.00
s163 + 6.00z41z163z3 <= 12.00
s163 + 6.00z175z163z1 <= 12.00
s163 + 6.00z175z163z3 <= 12.00
s84 + 6.00z139z84z3 <= 12.00
s84 + 6.00z41z84z3 <= 12.00
s84 + 6.00z175z84z3 <= 12.00
s108 + 6.00z87z108z2 <= 12.00
s108 + 6.00z25z108z2 <= 12.00

Bounds
s44 = 3.904959
s139 = 3.630219
s131 = 4.209884
s122 = 5.178070
s137 = 5.170194
s109 = 5.214345
s7 = 5.270003
s43 = 5.259144
s83 = 5.226491
4.290000 <= s87 <= 5.290000
4.330000 <= s25 <= 5.330000
4.390000 <= s41 <= 5.390000
4.460000 <= s175 <= 5.460000
4.660000 <= s79 <= 5.660000
4.680000 <= s154 <= 5.680000
4.790000 <= s106 <= 5.790000
4.820000 <= s162 <= 5.820000
4.830000 <= s176 <= 5.830000
4.850000 <= s38 <= 5.850000
4.940000 <= s31 <= 5.940000
5.020000 <= s134 <= 6.000000
5.030000 <= s23 <= 6.000000
5.040000 <= s171 <= 6.000000
5.050000 <= s107 <= 5.640000
5.050000 <= s127 <= 6.000000
5.060000 <= s76 <= 5.680000
5.080000 <= s19 <= 6.000000
5.110000 <= s52 <= 6.000000
5.150000 <= s112 <= 6.000000
5.160000 <= s92 <= 6.000000
5.220000 <= s34 <= 6.000000
5.220000 <= s53 <= 5.620000
5.260000 <= s5 <= 6.000000
5.260000 <= s72 <= 6.000000
5.260000 <= s165 <= 6.000000
5.290000 <= s16 <= 6.000000
5.320000 <= s68 <= 6.000000
5.460000 <= s140 <= 6.000000
5.700000 <= s135 <= 6.000000
5.720000 <= s22 <= 6.000000
5.740000 <= s155 <= 6.000000
5.800000 <= s49 <= 6.000000
5.830000 <= s142 <= 6.000000
5.840000 <= s100 <= 6.000000
5.890000 <= s170 <= 6.000000
5.920000 <= s163 <= 6.000000
5.940000 <= s84 <= 6.000000
5.960000 <= s108 <= 6.000000

General
x44x87x1 x44x25x1 x44x175x1 x44x106x1 x44x38x1 x44x171x1 x44x107x1 x44x127x1 x44x19x1 x44x52x1 x44x92x1 x44x34x1 x44x53x1 x44x72x1 x44x16x1 x44x68x1 x44x135x1 x44x22x1 x44x49x1 x44x170x1 x44x163x1 
x139x41x3 x139x175x1 x139x175x3 x139x154x3 x139x106x1 x139x162x3 x139x176x3 x139x38x1 x139x23x3 x139x171x1 x139x107x1 x139x127x1 x139x127x3 x139x19x1 x139x52x1 x139x92x1 x139x34x1 x139x53x1 x139x5x3 x139x72x1 x139x16x1 x139x16x3 x139x68x1 x139x140x3 x139x135x1 x139x135x3 x139x22x1 x139x22x3 x139x155x3 x139x49x1 x139x142x3 x139x170x1 x139x163x1 x139x163x3 x139x84x3 
x131x106x1 x131x31x2 x131x23x2 x131x171x1 x131x127x1 x131x19x1 x131x92x1 x131x92x2 x131x140x2 






x87x175x1 x87x79x2 x87x106x1 x87x176x2 x87x38x1 x87x31x2 x87x134x2 x87x23x2 x87x171x1 x87x127x1 x87x76x2 x87x19x1 x87x52x1 x87x52x2 x87x112x2 x87x92x1 x87x92x2 x87x34x1 x87x5x2 x87x72x1 x87x72x2 x87x165x2 x87x16x1 x87x68x1 x87x140x2 x87x135x1 x87x22x1 x87x155x2 x87x49x1 x87x49x2 x87x100x2 x87x170x1 x87x163x1 x87x108x2 x87x0x1 x87x0x2 
x25x175x1 x25x79x2 x25x106x1 x25x176x2 x25x38x1 x25x31x2 x25x134x2 x25x23x2 x25x171x1 x25x107x1 x25x127x1 x25x76x2 x25x19x1 x25x52x1 x25x52x2 x25x112x2 x25x92x1 x25x92x2 x25x34x1 x25x5x2 x25x72x1 x25x72x2 x25x165x2 x25x16x1 x25x68x1 x25x140x2 x25x135x1 x25x22x1 x25x155x2 x25x49x1 x25x49x2 x25x100x2 x25x170x1 x25x163x1 x25x108x2 x25x0x1 x25x0x2 
x41x23x3 x41x127x3 x41x5x3 x41x16x3 x41x140x3 x41x135x3 x41x22x3 x41x155x3 x41x142x3 x41x163x3 x41x84x3 x41x0x3 
x175x154x3 x175x162x3 x175x176x3 x175x38x1 x175x23x3 x175x171x1 x175x127x1 x175x127x3 x175x19x1 x175x52x1 x175x92x1 x175x34x1 x175x5x3 x175x72x1 x175x16x1 x175x16x3 x175x68x1 x175x140x3 x175x135x1 x175x135x3 x175x22x1 x175x22x3 x175x155x3 x175x49x1 x175x142x3 x175x170x1 x175x163x1 x175x163x3 x175x84x3 x175x0x1 x175x0x3 
x79x176x2 x79x134x2 x79x52x2 x79x112x2 x79x5x2 x79x72x2 x79x165x2 x79x155x2 x79x0x2 
x154x162x3 x154x176x3 x154x5x3 x154x16x3 x154x135x3 x154x0x3 
x106x171x1 x106x127x1 x106x19x1 x106x92x1 x106x0x1 
x162x5x3 x162x16x3 x162x0x3 
x176x134x2 x176x52x2 x176x112x2 x176x5x2 x176x5x3 x176x72x2 x176x165x2 x176x16x3 x176x0x2 x176x0x3 
x38x52x1 x38x34x1 x38x72x1 x38x16x1 x38x68x1 x38x0x1 
x31x23x2 x31x92x2 x31x0x2 
x134x0x2 
x23x0x2 x23x0x3 
x171x0x1 
x107x0x1 
x127x0x1 x127x0x3 
x76x0x2 
x19x0x1 
x52x0x1 x52x0x2 
x112x0x2 
x92x0x1 x92x0x2 
x34x0x1 
x53x0x1 
x5x0x2 x5x0x3 
x72x0x1 x72x0x2 
x165x0x2 
x16x0x1 x16x0x3 
x68x0x1 
x140x0x2 x140x0x3 
x135x0x1 x135x0x3 
x22x0x1 x22x0x3 
x155x0x2 x155x0x3 
x49x0x1 x49x0x2 
x142x0x3 
x100x0x2 
x170x0x1 
x163x0x1 x163x0x3 
x84x0x3 
x108x0x2 

Binaries
y87 y25 y41 y175 y79 y154 y106 y162 y176 y38 y31 y134 y23 y171 y107 y127 y76 y19 y52 y112 y92 y34 y53 y5 y72 y165 y16 y68 y140 y135 y22 y155 y49 y142 y100 y170 y163 y84 y108 
z44z87z1 z44z25z1 z44z175z1 z44z106z1 z44z38z1 z44z171z1 z44z107z1 z44z127z1 z44z19z1 z44z52z1 z44z92z1 z44z34z1 z44z53z1 z44z72z1 z44z16z1 z44z68z1 z44z135z1 z44z22z1 z44z49z1 z44z170z1 z44z163z1 
z139z41z3 z139z175z1 z139z175z3 z139z154z3 z139z106z1 z139z162z3 z139z176z3 z139z38z1 z139z23z3 z139z171z1 z139z107z1 z139z127z1 z139z127z3 z139z19z1 z139z52z1 z139z92z1 z139z34z1 z139z53z1 z139z5z3 z139z72z1 z139z16z1 z139z16z3 z139z68z1 z139z140z3 z139z135z1 z139z135z3 z139z22z1 z139z22z3 z139z155z3 z139z49z1 z139z142z3 z139z170z1 z139z163z1 z139z163z3 z139z84z3 
z131z106z1 z131z31z2 z131z23z2 z131z171z1 z131z127z1 z131z19z1 z131z92z1 z131z92z2 z131z140z2 






z87z175z1 z87z79z2 z87z106z1 z87z176z2 z87z38z1 z87z31z2 z87z134z2 z87z23z2 z87z171z1 z87z127z1 z87z76z2 z87z19z1 z87z52z1 z87z52z2 z87z112z2 z87z92z1 z87z92z2 z87z34z1 z87z5z2 z87z72z1 z87z72z2 z87z165z2 z87z16z1 z87z68z1 z87z140z2 z87z135z1 z87z22z1 z87z155z2 z87z49z1 z87z49z2 z87z100z2 z87z170z1 z87z163z1 z87z108z2 
z25z175z1 z25z79z2 z25z106z1 z25z176z2 z25z38z1 z25z31z2 z25z134z2 z25z23z2 z25z171z1 z25z107z1 z25z127z1 z25z76z2 z25z19z1 z25z52z1 z25z52z2 z25z112z2 z25z92z1 z25z92z2 z25z34z1 z25z5z2 z25z72z1 z25z72z2 z25z165z2 z25z16z1 z25z68z1 z25z140z2 z25z135z1 z25z22z1 z25z155z2 z25z49z1 z25z49z2 z25z100z2 z25z170z1 z25z163z1 z25z108z2 
z41z23z3 z41z127z3 z41z5z3 z41z16z3 z41z140z3 z41z135z3 z41z22z3 z41z155z3 z41z142z3 z41z163z3 z41z84z3 
z175z154z3 z175z162z3 z175z176z3 z175z38z1 z175z23z3 z175z171z1 z175z127z1 z175z127z3 z175z19z1 z175z52z1 z175z92z1 z175z34z1 z175z5z3 z175z72z1 z175z16z1 z175z16z3 z175z68z1 z175z140z3 z175z135z1 z175z135z3 z175z22z1 z175z22z3 z175z155z3 z175z49z1 z175z142z3 z175z170z1 z175z163z1 z175z163z3 z175z84z3 
z79z176z2 z79z134z2 z79z52z2 z79z112z2 z79z5z2 z79z72z2 z79z165z2 z79z155z2 
z154z162z3 z154z176z3 z154z5z3 z154z16z3 z154z135z3 
z106z171z1 z106z127z1 z106z19z1 z106z92z1 
z162z5z3 z162z16z3 
z176z134z2 z176z52z2 z176z112z2 z176z5z2 z176z5z3 z176z72z2 z176z165z2 z176z16z3 
z38z52z1 z38z34z1 z38z72z1 z38z16z1 z38z68z1 
z31z23z2 z31z92z2 





























End